words_hard_train/3139.qaiger
aag 45 12 0 1 33
2
4
8
10
26
28
32
36
42
46
68
82
90
6 3 4
12 9 11
14 8 10
16 13 15
18 6 16
20 2 5
22 17 20
24 19 23
30 26 29
34 30 33
38 34 37
40 4 10
44 40 42
48 44 46
50 39 49
52 27 28
54 52 32
56 54 36
58 57 48
60 51 59
62 25 60
64 45 47
66 65 49
70 66 68
72 67 69
74 71 73
76 62 74
78 41 43
80 79 45
84 81 83
86 80 82
88 85 87
90 76 89
i0 1 x1[4]
i1 2 y2[0]
i2 1 x1[5]
i3 2 y2[1]
i4 2 y2[7]
i5 2 y2[5]
i6 2 y2[4]
i7 2 y2[6]
i8 2 y2[2]
i9 2 y2[3]
i10 1 x1[7]
i11 1 x1[6]
o0 bool[0]
c
simplified
  ==
    subtract
      >> 4
        1 x1
      -136
    add
      1
      2 y2
