words_hard_train/3139.qaiger.qdimacs
p cnf 45 100
a 1 34 4 41 0
e 2 3 5 6 7 8 9 10 11 12 13 14 15 16 17 18 19 20 21 22 23 24 25 26 27 28 29 30 31 32 33 35 36 37 38 39 40 42 43 44 45 0
1 -2 3 0
-1 -3 0
2 -3 0
4 5 6 0
-4 -6 0
-5 -6 0
-4 -5 7 0
4 -7 0
5 -7 0
6 7 8 0
-6 -8 0
-7 -8 0
-3 -8 9 0
3 -9 0
8 -9 0
-1 2 10 0
1 -10 0
-2 -10 0
8 -10 11 0
-8 -11 0
10 -11 0
9 11 12 0
-9 -12 0
-11 -12 0
-13 14 15 0
13 -15 0
-14 -15 0
-15 16 17 0
15 -17 0
-16 -17 0
-17 18 19 0
17 -19 0
-18 -19 0
-2 -5 20 0
2 -20 0
5 -20 0
-20 -21 22 0
20 -22 0
21 -22 0
-22 -23 24 0
22 -24 0
23 -24 0
19 24 25 0
-19 -25 0
-24 -25 0
13 -14 26 0
-13 -26 0
14 -26 0
-26 -16 27 0
26 -27 0
16 -27 0
-27 -18 28 0
27 -28 0
18 -28 0
28 -24 29 0
-28 -29 0
24 -29 0
25 29 30 0
-25 -30 0
-29 -30 0
12 -30 31 0
-12 -31 0
30 -31 0
22 23 32 0
-22 -32 0
-23 -32 0
32 24 33 0
-32 -33 0
-24 -33 0
-33 -34 35 0
33 -35 0
34 -35 0
33 34 36 0
-33 -36 0
-34 -36 0
35 36 37 0
-35 -37 0
-36 -37 0
-31 -37 38 0
31 -38 0
37 -38 0
20 21 39 0
-20 -39 0
-21 -39 0
39 22 40 0
-39 -40 0
-22 -40 0
40 41 42 0
-40 -42 0
-41 -42 0
-40 -41 43 0
40 -43 0
41 -43 0
42 43 44 0
-42 -44 0
-43 -44 0
-38 44 45 0
38 -45 0
-44 -45 0
45 0
